NAME: tsp20-42
TYPE: TSP
DIMENSION: 20
EDGE_WEIGHT_TYPE: EUC_2D
NODE_COORD_SECTION
0 46 3
1 38 71
2 26 47
3 21 37
4 58 19
5 77 60
6 0 83
7 36 15
8 90 16
9 74 30
10 100 77
11 96 88
12 17 94
13 91 92
14 23 16
15 0 46
16 73 45
17 35 4
18 2 5
19 100 43
EOF